Surf-mp-24081                           
   1.00000000000000     
     3.4878362323679837    0.0000000036597344    0.0000000000000000
    -1.7439186098402102    3.0205548224530090    0.0000000000000000
     0.0000000000000000    0.0000000000000000   25.7431650000000012
   Sc   H    Cl
     2     2     2
Direct
  0.6666669999999968  0.3333330000000032  0.4508261908419953
  0.3333330000000032  0.6666669999999968  0.5491738091580051
  0.6666669999999968  0.3333330000000032  0.5287351839124973
  0.3333330000000032  0.6666669999999968  0.4712648160875028
 -0.0000000000000000  0.0000000000000000  0.3881804432720387
 -0.0000000000000000 -0.0000000000000000  0.6118195567279613
 
  0.00000000E+00  0.00000000E+00  0.00000000E+00
  0.00000000E+00  0.00000000E+00  0.00000000E+00
  0.00000000E+00  0.00000000E+00  0.00000000E+00
  0.00000000E+00  0.00000000E+00  0.00000000E+00
  0.00000000E+00  0.00000000E+00  0.00000000E+00
  0.00000000E+00  0.00000000E+00  0.00000000E+00
