Surf-mp-24081
1.0
3.510121 0.000000 0.000000
-1.755061 3.039854 0.000000
0.000000 0.000000 25.743165
Sc H Cl
2 2 2
direct
0.666667 0.333333 0.451186 Sc
0.333333 0.666667 0.548814 Sc
0.666667 0.333333 0.529037 H
0.333333 0.666667 0.470963 H
0.000000 0.000000 0.388453 Cl
0.000000 0.000000 0.611547 Cl
