ALGO = Fast
EDIFF = 1E-5
EINT = -0.542
ENCUT = 600
ISMEAR = 0
ISTART = 1
LCHARG = .FALSE.
LORBIT = 11
LPARD = .TRUE.
LSEPB = .FALSE.
LSEPK = .FALSE.
LSORBIT = .TRUE.
LWAVE = .FALSE.
NBMOD = -3
NEDOS = 5000
PREC = Accurate
SIGMA = 0.01
