bulk@JVASP-60368_mp-48
1.0
1.231846 -2.133622 0.000000
1.231846 2.133622 0.000000
0.000000 0.000000 20.000000
C
2
direct
0.333334 0.666666 0.097538 C
0.000000 -0.000000 0.097538 C

0.000000 0.000000 0.000000
0.000000 0.000000 0.000000
