Surf-mp-569157                          
   1.00000000000000     
     3.7944202607364415   -6.5721283685514944    0.0000000000000000
     3.7944202607364415    6.5721283685514944    0.0000000000000000
     0.0000000000000000    0.0000000000000000   23.6498039999999996
   Bi   I 
     2     6
Direct
  0.6666659999999993  0.3333340000000007  0.0771640000000033
  0.3333340000000007  0.6666659999999993  0.0771640000000033
 -0.0000000000061754  0.3363338805287944 -0.0001039032724765
  0.6636661194773811  0.6636661194773811 -0.0001039032724765
  0.3363338805226191  0.3363338805226191  0.1544309032724786
  0.3363338805287944 -0.0000000000061754 -0.0001039032724765
  0.0000000000061754  0.6636661194712057  0.1544309032724786
  0.6636661194712057  0.0000000000061754  0.1544309032724786
 
  0.00000000E+00  0.00000000E+00  0.00000000E+00
  0.00000000E+00  0.00000000E+00  0.00000000E+00
  0.00000000E+00  0.00000000E+00  0.00000000E+00
  0.00000000E+00  0.00000000E+00  0.00000000E+00
  0.00000000E+00  0.00000000E+00  0.00000000E+00
  0.00000000E+00  0.00000000E+00  0.00000000E+00
  0.00000000E+00  0.00000000E+00  0.00000000E+00
  0.00000000E+00  0.00000000E+00  0.00000000E+00
