Surf-mp-569157
1.0
3.914614 -6.780310 0.000000
3.914614 6.780310 0.000000
0.000000 0.000000 23.649804
Bi I
2 6
direct
0.666666 0.333334 0.077164 Bi
0.333334 0.666666 0.077164 Bi
0.000000 0.355374 0.000000 I
0.644626 0.644626 0.000000 I
0.355374 0.355374 0.154327 I
0.355374 0.000000 0.000000 I
0.000000 0.644626 0.154327 I
0.644626 0.000000 0.154327 I
