Surf-mp-22449                           
   1.00000000000000     
    -6.4271394101652159   -0.0000000000000000    0.0000000000000000
     3.2135697050826080    5.5660662314110665    0.0000000000000000
     0.0000000000000000    0.0000000000000000  -23.4322629999999990
   Cu   In   P    Se
     1     1     2     6
Direct
  0.3333340000000007  0.6666680000000014  0.8507520000000000
 -0.0000000000000000 -0.0000000000000000  0.8507520000000000
  0.6666659999999993  0.3333319999999986  0.8021627995650195
  0.6666659999999993  0.3333319999999986  0.8993412004349804
  0.3410329294272045  0.3485144915427442  0.7771386565421912
  0.0074815621257882  0.6589670706000875  0.7771386565421912
  0.0074815621155396  0.3485144915427442  0.9243653434578087
  0.6514855084742996  0.6589670706000875  0.9243653434578087
  0.3410329294101607  0.9925184378571681  0.9243653434578087
  0.6514855084470075  0.9925184378571681  0.7771386565421912
 
  0.00000000E+00  0.00000000E+00  0.00000000E+00
  0.00000000E+00  0.00000000E+00  0.00000000E+00
  0.00000000E+00  0.00000000E+00  0.00000000E+00
  0.00000000E+00  0.00000000E+00  0.00000000E+00
  0.00000000E+00  0.00000000E+00  0.00000000E+00
  0.00000000E+00  0.00000000E+00  0.00000000E+00
  0.00000000E+00  0.00000000E+00  0.00000000E+00
  0.00000000E+00  0.00000000E+00  0.00000000E+00
  0.00000000E+00  0.00000000E+00  0.00000000E+00
  0.00000000E+00  0.00000000E+00  0.00000000E+00
