Surf-mp-22449
1.0
-5.894380 0.000000 0.000000
2.947190 5.104683 0.000000
0.000000 0.000000 -23.432263
Cu In P Se
1 1 2 6
direct
0.333334 0.666668 0.850752 Cu
0.000000 0.000000 0.850752 In
0.666666 0.333332 0.801816 P
0.666666 0.333332 0.899688 P
0.315832 0.350367 0.768810 Se
0.034535 0.684168 0.768810 Se
0.034535 0.350367 0.932694 Se
0.649633 0.684168 0.932694 Se
0.315832 0.965465 0.932694 Se
0.649633 0.965465 0.768810 Se
