Surf-mp-48                              
   1.00000000000000     
     1.2318463172843481   -2.1336215849818441    0.0000000000000000
     1.2318463172843481    2.1336215849818441    0.0000000000000000
     0.0000000000000000    0.0000000000000000   20.0000000000000000
   C 
     2
Direct
  0.3333340000000007  0.6666659999999993  0.0975380000000001
  0.0000000000000000 -0.0000000000000000  0.0975380000000001
 
  0.00000000E+00  0.00000000E+00  0.00000000E+00
  0.00000000E+00  0.00000000E+00  0.00000000E+00
