Surf-mp-48
1.0
1.233645 -2.136737 0.000000
1.233645 2.136737 0.000000
0.000000 0.000000 20.000000
C
2
direct
0.333334 0.666666 0.097538 C
0.000000 0.000000 0.097538 C
