Surf-mp-754815                          
   1.0000000000000000     
     7.0914585611314438    0.0000000000000000    0.0000000000000000
     0.0000000000000000   12.2841286957219733    0.0000000000000000
    -8.8628746214780953    0.0000000000000000   25.0000000000000000
   Y    Br
     4    12
Direct
  0.0333469999999991  0.6240773822144681  0.1871170000000006
  0.0333469999999991  0.9574286177855293  0.1871170000000006
  0.5333479999999966  0.1240773822144681  0.1871170000000006
  0.5333479999999966  0.4574286177855292  0.1871170000000006
  0.2891270840017781  0.4666719191182930  0.2510176333839372
  0.2891270840017781  0.1148350808817091  0.2510176333839372
  0.2613405348547832  0.7907530000000023  0.2510114569972214
  0.7891270840017784  0.9666709191182953  0.2510176333839372
  0.7891270840017784  0.6148350808817092  0.2510176333839372
  0.7613405348547836  0.2907530000000023  0.2510114569972214
  0.3053544651452196  0.2907530000000023  0.1232235430027774
  0.2775679159982247  0.9666709191182953  0.1232163666160570
  0.2775679159982247  0.6148350808817092  0.1232163666160570
  0.8053554651452167  0.7907530000000023  0.1232235430027774
  0.7775679159982244  0.4666719191182930  0.1232163666160570
  0.7775679159982244  0.1148350808817091  0.1232163666160570

  0.00000000E+00  0.00000000E+00  0.00000000E+00
  0.00000000E+00  0.00000000E+00  0.00000000E+00
  0.00000000E+00  0.00000000E+00  0.00000000E+00
  0.00000000E+00  0.00000000E+00  0.00000000E+00
  0.00000000E+00  0.00000000E+00  0.00000000E+00
  0.00000000E+00  0.00000000E+00  0.00000000E+00
  0.00000000E+00  0.00000000E+00  0.00000000E+00
  0.00000000E+00  0.00000000E+00  0.00000000E+00
  0.00000000E+00  0.00000000E+00  0.00000000E+00
  0.00000000E+00  0.00000000E+00  0.00000000E+00
  0.00000000E+00  0.00000000E+00  0.00000000E+00
  0.00000000E+00  0.00000000E+00  0.00000000E+00
  0.00000000E+00  0.00000000E+00  0.00000000E+00
  0.00000000E+00  0.00000000E+00  0.00000000E+00
  0.00000000E+00  0.00000000E+00  0.00000000E+00
  0.00000000E+00  0.00000000E+00  0.00000000E+00
