Surf-mp-754815                          
   1.00000000000000     
     7.0955908797770864    0.0000000000000000    0.0000000000000000
     0.0000000000000000   12.2612370628134482    0.0000000000000000
    -8.8680391756719352    0.0000000000000000   25.0000000000000000
   Y    Br
     4    12
Direct
  0.0333469999999991  0.6240048856699778  0.1871170000000006
  0.0333469999999991  0.9575011143300196  0.1871170000000006
  0.5333479999999966  0.1240048856699780  0.1871170000000006
  0.5333479999999966  0.4575011143300194  0.1871170000000006
  0.2883228720693176  0.4658156629409993  0.2508162047827130
  0.2883228720693176  0.1156913370590027  0.2508162047827130
  0.2603702149088348  0.7907530000000023  0.2514475982588792
  0.7883228720693173  0.9658146629410014  0.2508162047827130
  0.7883228720693173  0.6156913370590031  0.2508162047827130
  0.7603702149088347  0.2907530000000023  0.2514475982588792
  0.3063247850911680  0.2907530000000023  0.1227874017411194
  0.2783721279306853  0.9658146629410014  0.1234177952172811
  0.2783721279306853  0.6156913370590031  0.1234177952172811
  0.8063257850911656  0.7907530000000023  0.1227874017411194
  0.7783721279306856  0.4658156629409993  0.1234177952172811
  0.7783721279306856  0.1156913370590027  0.1234177952172811
 
  0.00000000E+00  0.00000000E+00  0.00000000E+00
  0.00000000E+00  0.00000000E+00  0.00000000E+00
  0.00000000E+00  0.00000000E+00  0.00000000E+00
  0.00000000E+00  0.00000000E+00  0.00000000E+00
  0.00000000E+00  0.00000000E+00  0.00000000E+00
  0.00000000E+00  0.00000000E+00  0.00000000E+00
  0.00000000E+00  0.00000000E+00  0.00000000E+00
  0.00000000E+00  0.00000000E+00  0.00000000E+00
  0.00000000E+00  0.00000000E+00  0.00000000E+00
  0.00000000E+00  0.00000000E+00  0.00000000E+00
  0.00000000E+00  0.00000000E+00  0.00000000E+00
  0.00000000E+00  0.00000000E+00  0.00000000E+00
  0.00000000E+00  0.00000000E+00  0.00000000E+00
  0.00000000E+00  0.00000000E+00  0.00000000E+00
  0.00000000E+00  0.00000000E+00  0.00000000E+00
  0.00000000E+00  0.00000000E+00  0.00000000E+00
