Surf-mp-714976                          
   1.00000000000000     
     2.8173501021142346   -0.0000000000000000    0.0000000000000000
    -1.4086750510571173    2.4398961575309448    0.0000000000000000
     0.0000000000000000    0.0000000000000000   24.5517749999999992
   Co   O 
     1     2
Direct
  0.2690539999999970  0.9290120000000002  0.0926970000000011
  0.6023870000000002  0.5956789999999970  0.1307621356947131
  0.9357210000000009  0.2623450000000034  0.0546328643052866
 
  0.00000000E+00  0.00000000E+00  0.00000000E+00
  0.00000000E+00  0.00000000E+00  0.00000000E+00
  0.00000000E+00  0.00000000E+00  0.00000000E+00
