Surf-mp-714976                          
   1.00000000000000     
     2.8175495632039365   -0.0000000000000000    0.0000000000000000
    -1.4087747816019682    2.4400688957736656    0.0000000000000000
     0.0000000000000000    0.0000000000000000   24.5517749999999992
   Co   O 
     1     2
Direct
  0.2690539999999970  0.9290120000000002  0.0926970000000011
  0.6023870000000002  0.5956789999999970  0.1307561503221528
  0.9357210000000009  0.2623450000000034  0.0546388496778471
 
  0.00000000E+00  0.00000000E+00  0.00000000E+00
  0.00000000E+00  0.00000000E+00  0.00000000E+00
  0.00000000E+00  0.00000000E+00  0.00000000E+00
