Surf-mp-604910                          
   1.00000000000000     
     3.5767712107284657    0.0000000000000000    0.0000000000000000
     0.0000000000000000    3.5767712107284657    0.0000000000000000
     0.0000000000000000    0.0000000000000000   26.2463559999999987
   Mn   Se
     2     2
Direct
  0.8643590000000003  0.8643590000000003  0.1189949999999982
  0.3643590000000003  0.3643590000000003  0.1189949999999982
  0.8643590000000003  0.3643590000000003  0.1789361566382560
  0.3643590000000003  0.8643590000000003  0.0590538433617478
 
  0.00000000E+00  0.00000000E+00  0.00000000E+00
  0.00000000E+00  0.00000000E+00  0.00000000E+00
  0.00000000E+00  0.00000000E+00  0.00000000E+00
  0.00000000E+00  0.00000000E+00  0.00000000E+00
