bulk@JVASP-14431_mp-604910
1.0
3.576771 0.000000 0.000000
0.000000 3.576771 0.000000
0.000000 0.000000 26.246356
Mn Se
2 2
direct
0.864359 0.864359 0.118995 Mn
0.364359 0.364359 0.118995 Mn
0.864359 0.364359 0.178936 Se
0.364359 0.864359 0.059054 Se

0.000000 0.000000 0.000000
0.000000 0.000000 0.000000
0.000000 0.000000 0.000000
0.000000 0.000000 0.000000
