Surf-mp-22231                           
   1.00000000000000     
     4.4767356646834342   -0.0001409835261675    0.0000000000000000
    -0.0001411270922827    4.3634916730240541    0.0000000000000000
     0.0000000000000000    0.0000000000000000   28.8210970000000017
   U    Te
     2     6
Direct
 -0.0000084904416875 -0.0009363847078898  0.2254087426055869
  0.5000074106852598  0.4990730075759134  0.0806549103409565
  0.4999904122862960  0.4996141432481730  0.1929569725884193
  0.0000214222720849  0.5002503174953495  0.3065914628160917
  0.5000147012260459  0.0011062311027280  0.3059728397408687
  0.0000083995749812 -0.0003516838567084  0.1131090550058446
  0.4999796136703707  0.0002064119548261  0.9994725628394472
 -0.0000134692733516  0.5010379571876086  0.0000874540627872
 
  0.00000000E+00  0.00000000E+00  0.00000000E+00
  0.00000000E+00  0.00000000E+00  0.00000000E+00
  0.00000000E+00  0.00000000E+00  0.00000000E+00
  0.00000000E+00  0.00000000E+00  0.00000000E+00
  0.00000000E+00  0.00000000E+00  0.00000000E+00
  0.00000000E+00  0.00000000E+00  0.00000000E+00
  0.00000000E+00  0.00000000E+00  0.00000000E+00
  0.00000000E+00  0.00000000E+00  0.00000000E+00
