Surf-mp-22231
1.0
4.440928 0.000000 0.000000
0.000000 4.399284 0.000000
0.000000 0.000000 28.821097
U Te
2 6
direct
0.000000 0.000000 0.225577 U
0.500000 0.500000 0.080487 U
0.500000 0.500000 0.192635 Te
0.000000 0.500000 0.306682 Te
0.500000 0.000000 0.307205 Te
0.000000 0.000000 0.113429 Te
0.500000 0.000000 0.999381 Te
0.000000 0.500000 0.998858 Te
