Surf-mp-569581                          
   1.00000000000000     
     3.6313748522450631   -2.0965748614627038    0.0000000000000000
    -0.0000000000000000    4.1931497229254076    0.0000000000000000
     0.0000000000000000    0.0000000000000000   22.8600290000000008
   Bi   Pt
     2     1
Direct
  0.3333330000000032  0.6666669999999968  0.1227981856647390
  0.6666669999999968  0.3333330000000032  0.0023118143352603
 -0.0000000000000000 -0.0000000000000000  0.0625550000000032
 
  0.00000000E+00  0.00000000E+00  0.00000000E+00
  0.00000000E+00  0.00000000E+00  0.00000000E+00
  0.00000000E+00  0.00000000E+00  0.00000000E+00
