AGGAC = 0.0
EDIFF = 1e-07
EDIFFG = -0.001
ENCUT = 500
GGA = Bo
IBRION = 2
ISIF = 3
ISMEAR = 0
ISPIN = 2
LCHARG = False
LORBIT = 11
LUSE_VDW = True
LVHAR = True
LVTOT = True
LWAVE = False
NEDOS = 5000
NELM = 500
NPAR = 8
NSW = 500
PARAM1 = 0.1833333333
PARAM2 = 0.22
PREC = Accurate
