Surf-mp-569581
1.0
3.602578 -2.079949 0.000000
0.000000 4.159898 0.000000
0.000000 0.000000 22.860029
Bi Pt
2 1
direct
0.333333 0.666667 0.125110 Bi
0.666667 0.333333 0.000000 Bi
0.000000 0.000000 0.062555 Pt
