Surf-mp-570506                          
   1.00000000000000     
     3.7629580231134514    0.0000000000000000    0.0000000000000000
     0.0000000000000000    6.8760221265679800    0.0000000000000000
     0.0000000000000000    0.0000000000000000   24.4125729999999983
   I    Zr
     4     2
Direct
  0.0000000000000000  0.8823569929696923  0.1578891995509505
  0.0000000000000000  0.2222252677985402 -0.0000463096505806
  0.5000000000000000  0.7247855293792334  0.0228593595093789
  0.5000000000000000  0.3849141335211457  0.1807922662201586
  0.5000000000000000  0.1154353493985894  0.0882969824506561
  0.0000000000000000  0.4917047269327905  0.0924475019194387
 
  0.00000000E+00  0.00000000E+00  0.00000000E+00
  0.00000000E+00  0.00000000E+00  0.00000000E+00
  0.00000000E+00  0.00000000E+00  0.00000000E+00
  0.00000000E+00  0.00000000E+00  0.00000000E+00
  0.00000000E+00  0.00000000E+00  0.00000000E+00
  0.00000000E+00  0.00000000E+00  0.00000000E+00
