Surf-mp-570506
1.0
3.776409 0.000000 0.000000
0.000000 6.924741 0.000000
0.000000 0.000000 24.412573
I Zr
4 2
direct
0.000000 0.884216 0.157379 I
0.000000 0.222224 0.000000 I
0.500000 0.723026 0.023351 I
0.500000 0.384674 0.180750 I
0.500000 0.116436 0.088205 Zr
0.000000 0.490846 0.092554 Zr
