Surf-mp-21273                           
   1.0000000000000000     
     3.6067397159240602    0.0000000000000000    0.0000000000000000
     0.0000000000000000    3.6067397159240602    0.0000000000000000
     0.0000000000000000    0.0000000000000000   27.0294950000000007
   Fe   Te
     2     2
Direct
  0.9675190000000029  0.9675190000000029  0.1300340000000020
  0.4675179999999983  0.4675179999999983  0.1300340000000020
  0.9675190000000029  0.4675179999999983  0.1990513159937964
  0.4675179999999983  0.9675190000000029  0.0610166840062076

  0.00000000E+00  0.00000000E+00  0.00000000E+00
  0.00000000E+00  0.00000000E+00  0.00000000E+00
  0.00000000E+00  0.00000000E+00  0.00000000E+00
  0.00000000E+00  0.00000000E+00  0.00000000E+00
