ALGO = None
AMIX = 0.2
AMIX_MAG = 0.8
BMIX = 1e-05
BMIX_MAG = 1e-05
EDIFF = 1E-5
ENCUT = 600
ISMEAR = 0
LCHARG = .FALSE.
LDAU = .TRUE.
LDAUL = 2 -1
LDAUPRINT = 2
LDAUTYPE = 2
LDAUU = 0 0
LMAMIX = 4
LORBIT = 11
LSORBIT = .TRUE.
LWANNIER90 = .TRUE.
LWAVE = .FALSE.
LWRITE_MMN_AMN = .TRUE.
MAGMOM =  0 0 6 0 0 6 0 0 6 0 0 6
NBANDS = 80
NEDOS = 5000
NELM = 1
PREC = Accurate
SIGMA = 0.01
