bulk@JVASP-6667_mp-21273
1.0
3.606740 0.000000 0.000000
0.000000 3.606740 0.000000
0.000000 0.000000 27.029495
Fe Te
2 2
direct
0.967519 0.967519 0.130034 Fe
0.467518 0.467518 0.130034 Fe
0.967519 0.467518 0.199051 Te
0.467518 0.967519 0.061017 Te

0.000000 0.000000 0.000000
0.000000 0.000000 0.000000
0.000000 0.000000 0.000000
0.000000 0.000000 0.000000
