hr_plot=.true. 
num_bands = 68
guiding_centres = TRUE 
kmesh_tol=0.000000001 
num_wann =40
exclude_bands     = 1-12
dis_num_iter =100
dis_mix_ratio =0.5
num_iter =100
num_print_cycles =50
begin projections
Te:s,p
Fe:s,d
end projections

spinors = .true.

begin unit_cell_cart
     3.6067400     0.0000000     0.0000000
     0.0000000     3.6067400     0.0000000
     0.0000000     0.0000000    27.0294950
end unit_cell_cart

begin atoms_cart
Fe       3.4895895     3.4895895     3.5147534
Fe       1.6862159     1.6862159     3.5147534
Te       3.4895895     1.6862159     5.3802480
Te       1.6862159     3.4895895     1.6492587
end atoms_cart

mp_grid =    13    13     1

begin kpoints
      0.000000000000      0.000000000000      0.000000000000
      0.076923076923      0.000000000000      0.000000000000
      0.153846153846      0.000000000000      0.000000000000
      0.230769230769      0.000000000000      0.000000000000
      0.307692307692      0.000000000000      0.000000000000
      0.384615384615      0.000000000000      0.000000000000
      0.461538461538      0.000000000000      0.000000000000
      0.076923076923      0.076923076923      0.000000000000
      0.153846153846      0.076923076923      0.000000000000
      0.230769230769      0.076923076923      0.000000000000
      0.307692307692      0.076923076923      0.000000000000
      0.384615384615      0.076923076923      0.000000000000
      0.461538461538      0.076923076923      0.000000000000
     -0.461538461538      0.076923076923      0.000000000000
     -0.384615384615      0.076923076923      0.000000000000
     -0.307692307692      0.076923076923      0.000000000000
     -0.230769230769      0.076923076923      0.000000000000
     -0.153846153846      0.076923076923      0.000000000000
      0.153846153846      0.153846153846      0.000000000000
      0.230769230769      0.153846153846      0.000000000000
      0.307692307692      0.153846153846      0.000000000000
      0.384615384615      0.153846153846      0.000000000000
      0.461538461538      0.153846153846      0.000000000000
     -0.461538461538      0.153846153846      0.000000000000
     -0.384615384615      0.153846153846      0.000000000000
     -0.307692307692      0.153846153846      0.000000000000
     -0.230769230769      0.153846153846      0.000000000000
      0.230769230769      0.230769230769      0.000000000000
      0.307692307692      0.230769230769      0.000000000000
      0.384615384615      0.230769230769      0.000000000000
      0.461538461538      0.230769230769      0.000000000000
     -0.461538461538      0.230769230769      0.000000000000
     -0.384615384615      0.230769230769      0.000000000000
     -0.307692307692      0.230769230769      0.000000000000
      0.307692307692      0.307692307692      0.000000000000
      0.384615384615      0.307692307692      0.000000000000
      0.461538461538      0.307692307692      0.000000000000
     -0.461538461538      0.307692307692      0.000000000000
     -0.384615384615      0.307692307692      0.000000000000
      0.384615384615      0.384615384615      0.000000000000
      0.461538461538      0.384615384615      0.000000000000
     -0.461538461538      0.384615384615      0.000000000000
      0.461538461538      0.461538461538      0.000000000000
     -0.076923076923     -0.000000000000     -0.000000000000
     -0.000000000000      0.076923076923      0.000000000000
      0.000000000000     -0.076923076923     -0.000000000000
     -0.153846153846     -0.000000000000     -0.000000000000
     -0.000000000000      0.153846153846      0.000000000000
      0.000000000000     -0.153846153846     -0.000000000000
     -0.230769230769     -0.000000000000     -0.000000000000
     -0.000000000000      0.230769230769      0.000000000000
      0.000000000000     -0.230769230769     -0.000000000000
     -0.307692307692     -0.000000000000     -0.000000000000
     -0.000000000000      0.307692307692      0.000000000000
      0.000000000000     -0.307692307692     -0.000000000000
     -0.384615384615     -0.000000000000     -0.000000000000
     -0.000000000000      0.384615384615      0.000000000000
      0.000000000000     -0.384615384615     -0.000000000000
     -0.461538461538     -0.000000000000     -0.000000000000
     -0.000000000000      0.461538461538      0.000000000000
      0.000000000000     -0.461538461538     -0.000000000000
     -0.076923076923     -0.076923076923     -0.000000000000
     -0.076923076923      0.076923076923      0.000000000000
      0.076923076923     -0.076923076923     -0.000000000000
     -0.153846153846     -0.076923076923     -0.000000000000
     -0.076923076923      0.153846153846      0.000000000000
      0.076923076923     -0.153846153846     -0.000000000000
     -0.230769230769     -0.076923076923     -0.000000000000
     -0.076923076923      0.230769230769      0.000000000000
      0.076923076923     -0.230769230769     -0.000000000000
     -0.307692307692     -0.076923076923     -0.000000000000
     -0.076923076923      0.307692307692      0.000000000000
      0.076923076923     -0.307692307692     -0.000000000000
     -0.384615384615     -0.076923076923     -0.000000000000
     -0.076923076923      0.384615384615      0.000000000000
      0.076923076923     -0.384615384615     -0.000000000000
     -0.461538461538     -0.076923076923     -0.000000000000
     -0.076923076923      0.461538461538      0.000000000000
      0.076923076923     -0.461538461538     -0.000000000000
      0.461538461538     -0.076923076923     -0.000000000000
     -0.076923076923     -0.461538461538      0.000000000000
      0.076923076923      0.461538461538     -0.000000000000
      0.384615384615     -0.076923076923     -0.000000000000
     -0.076923076923     -0.384615384615      0.000000000000
      0.076923076923      0.384615384615     -0.000000000000
      0.307692307692     -0.076923076923     -0.000000000000
     -0.076923076923     -0.307692307692      0.000000000000
      0.076923076923      0.307692307692     -0.000000000000
      0.230769230769     -0.076923076923     -0.000000000000
     -0.076923076923     -0.230769230769      0.000000000000
      0.076923076923      0.230769230769     -0.000000000000
      0.153846153846     -0.076923076923     -0.000000000000
     -0.076923076923     -0.153846153846      0.000000000000
      0.076923076923      0.153846153846     -0.000000000000
     -0.153846153846     -0.153846153846     -0.000000000000
     -0.153846153846      0.153846153846      0.000000000000
      0.153846153846     -0.153846153846     -0.000000000000
     -0.230769230769     -0.153846153846     -0.000000000000
     -0.153846153846      0.230769230769      0.000000000000
      0.153846153846     -0.230769230769     -0.000000000000
     -0.307692307692     -0.153846153846     -0.000000000000
     -0.153846153846      0.307692307692      0.000000000000
      0.153846153846     -0.307692307692     -0.000000000000
     -0.384615384615     -0.153846153846     -0.000000000000
     -0.153846153846      0.384615384615      0.000000000000
      0.153846153846     -0.384615384615     -0.000000000000
     -0.461538461538     -0.153846153846     -0.000000000000
     -0.153846153846      0.461538461538      0.000000000000
      0.153846153846     -0.461538461538     -0.000000000000
      0.461538461538     -0.153846153846     -0.000000000000
     -0.153846153846     -0.461538461538      0.000000000000
      0.153846153846      0.461538461538     -0.000000000000
      0.384615384615     -0.153846153846     -0.000000000000
     -0.153846153846     -0.384615384615      0.000000000000
      0.153846153846      0.384615384615     -0.000000000000
      0.307692307692     -0.153846153846     -0.000000000000
     -0.153846153846     -0.307692307692      0.000000000000
      0.153846153846      0.307692307692     -0.000000000000
      0.230769230769     -0.153846153846     -0.000000000000
     -0.153846153846     -0.230769230769      0.000000000000
      0.153846153846      0.230769230769     -0.000000000000
     -0.230769230769     -0.230769230769     -0.000000000000
     -0.230769230769      0.230769230769      0.000000000000
      0.230769230769     -0.230769230769     -0.000000000000
     -0.307692307692     -0.230769230769     -0.000000000000
     -0.230769230769      0.307692307692      0.000000000000
      0.230769230769     -0.307692307692     -0.000000000000
     -0.384615384615     -0.230769230769     -0.000000000000
     -0.230769230769      0.384615384615      0.000000000000
      0.230769230769     -0.384615384615     -0.000000000000
     -0.461538461538     -0.230769230769     -0.000000000000
     -0.230769230769      0.461538461538      0.000000000000
      0.230769230769     -0.461538461538     -0.000000000000
      0.461538461538     -0.230769230769     -0.000000000000
     -0.230769230769     -0.461538461538      0.000000000000
      0.230769230769      0.461538461538     -0.000000000000
      0.384615384615     -0.230769230769     -0.000000000000
     -0.230769230769     -0.384615384615      0.000000000000
      0.230769230769      0.384615384615     -0.000000000000
      0.307692307692     -0.230769230769     -0.000000000000
     -0.230769230769     -0.307692307692      0.000000000000
      0.230769230769      0.307692307692     -0.000000000000
     -0.307692307692     -0.307692307692     -0.000000000000
     -0.307692307692      0.307692307692      0.000000000000
      0.307692307692     -0.307692307692     -0.000000000000
     -0.384615384615     -0.307692307692     -0.000000000000
     -0.307692307692      0.384615384615      0.000000000000
      0.307692307692     -0.384615384615     -0.000000000000
     -0.461538461538     -0.307692307692     -0.000000000000
     -0.307692307692      0.461538461538      0.000000000000
      0.307692307692     -0.461538461538     -0.000000000000
      0.461538461538     -0.307692307692     -0.000000000000
     -0.307692307692     -0.461538461538      0.000000000000
      0.307692307692      0.461538461538     -0.000000000000
      0.384615384615     -0.307692307692     -0.000000000000
     -0.307692307692     -0.384615384615      0.000000000000
      0.307692307692      0.384615384615     -0.000000000000
     -0.384615384615     -0.384615384615     -0.000000000000
     -0.384615384615      0.384615384615      0.000000000000
      0.384615384615     -0.384615384615     -0.000000000000
     -0.461538461538     -0.384615384615     -0.000000000000
     -0.384615384615      0.461538461538      0.000000000000
      0.384615384615     -0.461538461538     -0.000000000000
      0.461538461538     -0.384615384615     -0.000000000000
     -0.384615384615     -0.461538461538      0.000000000000
      0.384615384615      0.461538461538     -0.000000000000
     -0.461538461538     -0.461538461538     -0.000000000000
     -0.461538461538      0.461538461538      0.000000000000
      0.461538461538     -0.461538461538     -0.000000000000
end kpoints
